(set-logic QF_NIA)
(declare-fun a_a () Int)
(declare-fun b_a () Int)
(declare-fun c_a () Int)
(declare-fun d_a () Int)
(assert (> a_a 0))
(assert (> b_a 0))
(assert (> c_a 0))
(assert (> d_a 0))
(declare-fun a_b () Int)
(declare-fun b_b () Int)
(declare-fun c_b () Int)
(declare-fun d_b () Int)
(assert (> a_b 0))
(assert (> b_b 0))
(assert (> c_b 0))
(assert (> d_b 0))
(assert (>=  d_a  d_b))
(assert (>  b_a  b_b))
(assert (>= (+ 1 c_a) (+ 1 c_b)))
(assert (> (+ 1 a_a) (+ 1 a_b)))
(check-sat)
(get-model)
